p cnf 80 276
-1 0
2 3 0
4 3 0
-2 -4 -3 0
1 3 0
-5 0
6 7 0
8 7 0
-7 -6 -8 0
5 7 0
-9 0
10 11 0
12 11 0
-10 -12 -11 0
9 11 0
-13 0
14 15 0
16 15 0
-14 -16 -15 0
13 15 0
1 -5 -17 0
-1 5 -17 0
17 -1 -5 0
17 1 5 0
2 -6 -18 0
-2 6 -18 0
18 -2 -6 0
2 6 18 0
4 -19 -8 0
8 -4 -19 0
19 -4 -8 0
8 4 19 0
20 -21 -22 0
22 -20 -21 0
21 -20 -22 0
20 22 21 0
21 23 0
19 23 0
18 23 0
17 23 0
-21 -17 -23 -19 -18 0
23 0
1 -9 -24 0
9 -1 -24 0
24 -1 -9 0
9 1 24 0
2 -10 -25 0
-2 10 -25 0
25 -2 -10 0
2 10 25 0
4 -12 -26 0
-4 12 -26 0
26 -4 -12 0
4 26 12 0
20 -27 -28 0
-20 27 -28 0
28 -20 -27 0
20 27 28 0
28 29 0
26 29 0
25 29 0
24 29 0
-29 -25 -28 -26 -24 0
29 0
9 -13 -30 0
-9 -30 13 0
30 -9 -13 0
9 30 13 0
10 -16 -31 0
16 -10 -31 0
31 -10 -16 0
16 10 31 0
-14 12 -32 0
-12 14 -32 0
32 -12 -14 0
14 12 32 0
27 -33 -34 0
-27 33 -34 0
34 -27 -33 0
33 27 34 0
34 35 0
32 35 0
31 35 0
30 35 0
-30 -31 -32 -34 -35 0
35 0
-5 13 -36 0
-13 5 -36 0
-13 -5 36 0
5 13 36 0
16 -6 -37 0
6 -16 -37 0
-6 -16 37 0
16 6 37 0
14 -8 -38 0
8 -14 -38 0
-14 -8 38 0
8 14 38 0
33 -22 -39 0
22 -33 -39 0
-22 -33 39 0
22 33 39 0
39 40 0
38 40 0
37 40 0
36 40 0
-36 -37 -38 -39 -40 0
40 0
22 -20 -41 0
20 -22 -41 0
-20 -22 41 0
20 22 41 0
-41 0
-14 42 0
-33 42 0
14 33 -42 0
-16 43 0
-42 43 0
16 42 -43 0
-13 43 -44 0
13 -43 -44 0
-13 -43 44 0
13 43 44 0
-16 42 -45 0
16 -42 -45 0
-16 -42 45 0
16 42 45 0
9 44 45 -46 0
-9 -44 45 -46 0
-9 44 -45 -46 0
9 -44 -45 -46 0
-9 -44 -45 46 0
9 44 -45 46 0
9 -44 45 46 0
-9 44 45 46 0
-46 0
-12 27 -47 0
-27 12 -47 0
47 -27 -12 0
27 12 47 0
4 27 47 0
4 -27 -47 0
-4 -27 47 0
-4 27 -47 0
39 0
20 -48 0
48 -20 0
4 -49 0
49 -4 0
2 -50 0
50 -2 0
1 -51 0
51 -1 0
22 -52 0
52 -22 0
8 -53 0
53 -8 0
6 -54 0
54 -6 0
5 -55 0
55 -5 0
27 -56 0
56 -27 0
12 -57 0
57 -12 0
10 -58 0
58 -10 0
9 -59 0
59 -9 0
33 -60 0
60 -33 0
14 -61 0
61 -14 0
16 -62 0
62 -16 0
13 -63 0
63 -13 0
-8 64 0
-22 64 0
8 22 -64 0
-6 64 -65 0
6 -64 -65 0
-6 -64 65 0
6 64 65 0
22 -8 -66 0
8 -22 -66 0
66 -22 -8 0
8 22 66 0
-66 67 0
22 67 0
66 -22 -67 0
2 65 67 0
2 -65 -67 0
-2 -65 67 0
-2 65 -67 0
65 68 0
67 68 0
65 67 68 0
-65 -67 -68 0
-6 69 0
-64 69 0
6 64 -69 0
-5 69 -70 0
5 -69 -70 0
-5 -69 70 0
5 69 70 0
1 68 70 0
1 -68 -70 0
-1 -68 70 0
-1 68 -70 0
4 22 66 0
4 -22 -66 0
-4 -22 66 0
-4 22 -66 0
10 -45 0
-10 45 0
14 33 12 -71 0
-12 -14 33 -71 0
-12 14 -33 -71 0
-14 12 -33 -71 0
-12 -14 -33 71 0
14 12 -33 71 0
-14 33 12 71 0
-12 14 33 71 0
-71 0
34 0
-27 72 0
-12 72 0
27 12 -72 0
-10 72 -73 0
10 -72 -73 0
-10 -72 73 0
10 72 73 0
27 74 0
-47 74 0
-27 47 -74 0
2 73 74 0
2 -73 -74 0
-2 -73 74 0
-2 73 -74 0
73 75 0
74 75 0
73 74 75 0
-73 -74 -75 0
-10 76 0
-72 76 0
10 72 -76 0
-9 76 -77 0
9 -76 -77 0
-9 -76 77 0
9 76 77 0
1 75 77 0
1 -75 -77 0
-1 -75 77 0
-1 75 -77 0
-20 27 -78 0
20 -27 -78 0
-27 -20 78 0
20 27 78 0
-78 0
13 65 70 -79 0
-13 65 -70 -79 0
-13 -65 70 -79 0
13 -65 -70 -79 0
-13 -65 -70 79 0
13 -65 70 79 0
13 65 -70 79 0
-13 65 70 79 0
-79 0
16 -65 0
-16 65 0
-14 66 -80 0
14 -66 -80 0
-14 -66 80 0
14 66 80 0
-80 0
c 48 a0
c 49 a1
c 50 a2
c 51 a3
c 52 b0
c 53 b1
c 54 b2
c 55 b3
c 56 c0
c 57 c1
c 58 c2
c 59 c3
c 60 d0
c 61 d1
c 62 d2
c 63 d3
c 7 k!17
c 17 k!20
c 8 k!5
c 16 k!14
c 9 k!11
c 20 k!0
c 4 k!1
c 2 k!2
c 1 k!3
c 22 k!4
c 26 k!27
c 21 k!23
c 10 k!10
c 5 k!7
c 6 k!6
c 3 k!16
c 11 k!18
c 23 k!24
c 30 k!30
c 19 k!22
c 14 k!13
c 13 k!15
c 33 k!12
c 25 k!26
c 18 k!21
c 27 k!8
c 12 k!9
c 15 k!19
c 31 k!31
c 29 k!29
c 28 k!28
c 24 k!25
c 32 k!32
c 34 k!33
c 35 k!34
c 36 k!35
c 37 k!36
c 38 k!37
c 39 k!38
c 40 k!39
c 41 k!40
c 42 k!41
c 43 k!42
c 44 k!43
c 45 k!44
c 46 k!45
c 47 k!46
c 64 k!47
c 65 k!48
c 66 k!49
c 67 k!50
c 68 k!51
c 69 k!52
c 70 k!53
c 71 k!54
c 72 k!55
c 73 k!56
c 74 k!57
c 75 k!58
c 76 k!59
c 77 k!60
c 78 k!61
c 79 k!62
c 80 k!63
